NAME: seghorse
TYPE: TSP
COMMENT: Segment horsefly problem
DIMENSION: 14
EDGE_WEIGHT_TYPE: EXPLICIT
EDGE_WEIGHT_FORMAT: UPPER_ROW
EDGE_WEIGHT_SECTION
10851370
10413683
8283142
12476155
10134561
6965713
12965927
11691776
9762760
10560704
13502434
15696027
14291091
12349132
10198701
14398659
12006632
8717844
14807461
13479325
11442162
12112928
15138920
17413930
15954526
9520660
13710621
11192483
7748060
13912366
12505346
10353803
10906529
13984561
16331949
14821693
11478431
8951553
5528957
11681011
10294567
8200074
8861371
11885432
14177951
12704246
13042207
9504803
15670470
14193850
11929201
12293347
15421382
17857793
16284695
6823849
12965830
11468194
9185898
9556469
12680448
15111282
13541428
9372185
7889503
5666241
6234948
9290243
11638712
10124291
13798298
11414003
11505364
14627629
17149872
15511701
9815352
9871008
12990146
15516341
13874851
7443846
10567512
13088500
11450940
10226174
12786933
11114118
15741633
14058447
16623462
EOF